15
-1 514 50 824 66 279 511 318 269 502 652 335 162 579 531 
514 -1 560 586 556 607 115 709 710 455 890 406 360 66 370 
50 560 -1 872 32 300 560 323 264 547 669 381 203 625 580 
824 586 872 -1 890 681 476 774 832 335 685 492 758 594 295 
66 556 32 890 -1 331 563 355 295 568 701 402 196 620 596 
279 607 300 681 331 -1 549 107 151 349 374 233 370 671 431 
511 115 560 476 563 549 -1 655 669 349 799 328 376 149 257 
318 709 323 774 355 107 655 -1 80 448 357 340 442 774 535 
269 710 264 832 295 151 669 80 -1 500 435 373 411 777 578 
502 455 547 335 568 349 349 448 500 -1 467 166 469 499 110 
652 890 669 685 701 374 799 357 435 467 -1 488 735 945 577 
335 406 381 492 402 233 328 340 373 166 488 -1 313 464 210 
162 360 203 758 196 370 376 442 411 469 735 313 -1 424 464 
579 66 625 594 620 671 149 774 777 499 945 464 424 -1 406 
531 370 580 295 596 431 257 535 578 110 577 210 464 406 -1 
